c 1,2,3
c model count: 7
c x1 | !x1 & (x2 | !x2 & x3) with original Tseitin transformation
p cnf 9 17
4 0
4 -1 0
4 -5 0
-4 1 5 0
-5 6 0
-5 7 0
5 -6 -7 0
6 1 0
-6 -1 0
7 -2 0
7 -8 0
-7 2 8 0
-8 9 0
-8 3 0
8 -9 -3 0
9 2 0
-9 -2 0
